339,295
518,726
488,672
596,433
660,427
646,358
552,7
589,121
672,347
561,406
501,406
477,806
977,702
951,406
937,323
1041,46
727,264
681,316
622,415
326,462
207,331
912,860
681,706
681,616
823,360
787,352
937,489
711,406
668,380
699,349
746,-8
611,-38
912,-48
1023,295
875,265
453,332
342,160
